% seed = 0

mint = 36;
% maxt = 164;

nActs = 62;
dur = [0,3,2,3,3,5,4,2,2,4,2,7,2,2,1,1,3,2,4,3,1,3,2,4,4,4,2,2,5,2,5,1,2,4,2,1,2,5,2,6,2,2,2,1,3,4,4,2,2,5,4,2,1,2,3,2,2,1,3,2,1,0];

nSkills = 4;
sreq = [| 0,0,0,0,
	| 2,0,2,0,
	| 1,0,1,0,
	| 2,0,0,1,
	| 0,0,0,2,
	| 0,0,1,3,
	| 0,0,2,1,
	| 0,0,2,0,
	| 0,0,1,1,
	| 0,2,0,0,
	| 1,0,0,0,
	| 3,0,0,0,
	| 1,0,0,1,
	| 0,1,0,1,
	| 3,2,0,0,
	| 0,1,0,1,
	| 0,2,0,0,
	| 0,2,0,0,
	| 3,0,0,1,
	| 0,1,1,0,
	| 0,1,1,0,
	| 0,2,0,0,
	| 1,0,0,2,
	| 0,2,1,0,
	| 1,1,0,0,
	| 2,2,0,0,
	| 1,1,0,0,
	| 1,0,0,1,
	| 0,3,0,0,
	| 0,1,0,1,
	| 1,2,0,0,
	| 0,0,1,0,
	| 2,0,0,0,
	| 0,0,2,0,
	| 1,0,1,0,
	| 0,0,0,2,
	| 2,2,0,0,
	| 0,2,1,0,
	| 1,0,3,0,
	| 0,1,1,0,
	| 0,5,0,0,
	| 0,1,0,1,
	| 0,3,0,0,
	| 2,0,0,0,
	| 2,1,0,0,
	| 0,1,2,0,
	| 0,0,1,2,
	| 1,0,1,0,
	| 1,0,1,0,
	| 1,1,0,0,
	| 0,0,2,0,
	| 0,1,2,0,
	| 2,0,0,0,
	| 0,0,1,1,
	| 0,1,0,0,
	| 0,0,0,1,
	| 0,2,1,0,
	| 0,1,1,0,
	| 0,0,2,0,
	| 2,0,1,0,
	| 0,1,1,0,
	| 0,0,0,0, |];

% SumOfsreq = 149;

nResources = 8;
mastery = [| true,false,true,true,
	| true,true,false,true,
	| false,true,true,true,
	| true,true,true,false,
	| true,true,true,false,
	| false,true,true,true,
	| true,true,true,false,
	| true,true,true,false, |];

nPrecs = 112;
pred = [1,1,1,2,2,2,3,3,3,4,4,4,5,5,5,6,6,6,7,7,7,8,8,8,9,9,10,10,11,11,12,12,12,13,13,14,15,15,15,16,16,17,17,17,18,19,19,19,20,21,21,22,22,23,24,24,24,25,26,26,27,27,28,29,30,31,31,31,32,32,33,34,35,35,35,36,36,37,38,38,39,39,39,40,40,40,41,41,42,42,43,44,45,45,46,47,48,48,49,50,51,52,53,54,55,55,56,57,58,59,60,61];
succ = [2,3,4,9,6,7,41,12,31,49,18,5,53,14,48,11,51,16,10,36,8,25,14,55,17,42,13,39,29,21,33,15,32,33,27,52,35,22,24,19,40,36,20,31,39,26,37,56,32,39,23,51,44,45,28,38,54,31,50,46,58,48,47,30,32,34,38,40,61,53,49,58,49,43,52,41,51,41,57,60,50,55,47,43,44,46,44,54,43,45,61,61,50,46,47,53,52,55,60,54,57,56,59,57,59,56,60,58,59,62,62,62];

nUnrels = 1207;
unpred = [2,2,2,2,2,2,2,2,2,2,3,3,3,3,3,3,3,3,3,3,3,3,3,3,3,3,3,3,3,3,3,3,3,3,3,3,3,3,3,3,4,4,4,4,4,4,4,4,4,4,4,4,4,4,4,4,4,4,4,4,4,4,4,4,4,4,4,4,4,4,4,4,4,4,4,4,4,4,4,4,5,5,5,5,5,5,5,5,5,5,5,5,5,5,5,5,5,5,5,5,5,5,5,5,5,5,5,5,5,5,5,5,5,5,5,5,5,5,5,5,5,5,5,5,5,5,5,5,6,6,6,6,6,6,6,6,6,6,6,6,6,6,6,6,6,6,6,6,6,6,6,6,6,6,7,7,7,7,7,7,7,7,7,7,7,7,7,7,7,7,7,7,7,7,7,7,8,8,8,8,8,8,8,8,8,8,8,8,8,8,8,8,8,8,8,8,8,8,8,8,8,8,8,8,8,8,8,8,8,8,9,9,9,9,9,9,9,9,9,9,9,9,9,9,9,9,9,9,9,9,9,9,9,9,9,9,9,9,10,10,10,10,10,10,10,10,10,10,10,10,10,10,10,10,10,10,10,10,10,10,10,10,10,10,10,10,10,10,10,10,10,10,11,11,11,11,11,11,11,11,11,11,11,11,11,11,11,11,11,11,11,11,11,11,11,11,11,11,11,11,11,11,11,12,12,12,12,12,12,12,12,12,12,12,12,12,12,12,12,12,12,12,12,12,12,12,12,12,12,12,13,13,13,13,13,13,13,13,13,13,13,13,13,13,13,13,13,13,13,13,13,13,13,13,13,13,13,13,13,13,13,13,13,13,13,13,13,13,14,14,14,14,14,14,14,14,14,14,14,14,14,14,14,14,14,14,14,14,14,14,14,14,14,14,14,14,14,14,14,14,14,14,14,14,14,14,14,14,14,14,14,14,15,15,15,15,15,15,15,15,15,15,15,15,15,15,15,15,15,15,15,15,15,15,15,15,15,15,15,16,16,16,16,16,16,16,16,16,16,16,16,16,16,16,16,16,16,16,16,16,16,16,16,16,16,16,17,17,17,17,17,17,17,17,17,17,17,17,17,17,17,17,17,17,17,17,17,17,17,17,18,18,18,18,18,18,18,18,18,18,18,18,18,18,18,18,18,18,18,18,18,18,18,18,18,18,18,18,18,18,18,18,19,19,19,19,19,19,19,19,19,19,19,19,19,19,19,19,19,19,19,19,19,19,19,19,19,19,19,20,20,20,20,20,20,20,20,20,20,20,20,20,20,20,20,20,20,20,20,20,20,20,20,20,20,20,20,20,20,20,20,20,20,20,20,20,21,21,21,21,21,21,21,21,21,21,21,21,21,21,21,21,21,21,21,21,21,21,21,21,21,21,22,22,22,22,22,22,22,22,22,22,22,22,22,22,22,22,22,22,22,22,22,22,22,22,22,22,22,22,22,22,22,22,22,23,23,23,23,23,23,23,23,23,23,23,23,23,23,23,23,23,23,23,23,23,23,23,23,23,23,23,23,23,24,24,24,24,24,24,24,24,24,24,24,24,24,24,24,24,24,24,24,24,24,24,24,24,24,24,24,24,25,25,25,25,25,25,25,25,25,25,25,25,25,25,25,25,25,25,25,25,25,25,26,26,26,26,26,26,26,26,26,26,26,26,26,26,26,26,26,26,26,26,26,26,26,26,26,26,26,27,27,27,27,27,27,27,27,27,27,27,27,27,27,27,27,27,27,27,27,27,27,27,27,27,27,27,28,28,28,28,28,28,28,28,28,28,28,28,28,28,28,28,28,28,28,28,28,28,28,28,28,28,28,28,28,28,29,29,29,29,29,29,29,29,29,29,29,29,29,29,29,29,29,29,29,29,29,29,29,29,29,29,29,30,30,30,30,30,30,30,30,30,30,30,30,30,30,30,30,30,30,30,30,30,30,30,30,30,30,30,31,31,31,31,31,31,31,31,31,31,31,31,31,31,31,31,31,32,32,32,32,32,32,32,32,32,32,32,32,32,32,32,32,32,32,32,32,32,32,32,32,32,32,33,33,33,33,33,33,33,33,33,33,33,33,33,33,33,33,33,33,33,33,33,33,33,33,33,33,34,34,34,34,34,34,34,34,34,34,34,34,34,34,34,34,34,34,34,34,34,34,34,34,34,35,35,35,35,35,35,35,35,35,35,35,35,35,35,35,35,35,35,35,35,36,36,36,36,36,36,36,36,36,36,36,36,36,36,36,36,36,37,37,37,37,37,37,37,37,37,37,37,37,37,37,37,37,37,38,38,38,38,38,38,38,38,38,38,38,38,38,38,38,38,38,38,38,39,39,39,39,39,39,39,39,39,39,39,39,40,40,40,40,40,40,40,40,40,40,40,40,40,40,41,41,41,41,41,41,41,41,41,41,41,41,41,41,42,42,42,42,42,42,42,42,43,43,43,43,43,43,43,43,43,43,43,43,43,43,43,43,43,44,44,44,44,44,44,44,44,44,44,44,44,44,44,44,44,45,45,45,45,45,45,45,45,46,46,46,46,46,46,46,46,46,46,46,46,47,47,47,47,47,47,47,47,47,47,47,47,48,48,48,48,48,48,48,48,49,49,49,49,49,49,49,49,49,49,49,50,50,50,50,50,50,50,51,51,51,51,51,51,51,52,52,52,52,52,52,52,53,53,53,53,53,53,53,54,54,54,54,55,55,55,56,56,56,56,57,57,58,58,59,59,60];
unsucc = [3,4,5,12,15,18,22,24,28,35,4,5,6,7,8,9,10,11,13,14,16,17,18,19,20,21,23,25,26,27,29,30,36,37,39,42,45,48,50,55,6,7,8,9,10,11,12,13,15,16,17,19,20,21,22,23,24,25,26,27,28,29,30,31,32,33,34,35,36,37,38,40,41,42,43,44,45,46,51,61,6,7,8,9,10,11,12,13,15,16,17,18,19,20,21,22,23,24,25,26,27,28,29,30,31,32,33,34,35,36,37,38,39,40,41,42,43,44,45,46,47,49,50,51,54,57,58,61,7,8,9,10,12,13,14,15,17,18,20,22,24,25,27,28,31,33,34,35,36,38,42,48,49,52,9,11,12,15,16,17,18,19,20,21,22,23,24,26,28,29,30,32,35,37,42,45,9,10,11,12,13,15,16,17,18,19,20,21,22,23,24,26,27,28,29,30,32,33,35,36,37,39,41,42,45,48,49,50,51,54,10,11,12,13,14,15,16,18,19,21,22,23,24,25,26,27,28,29,30,33,35,37,39,48,49,52,55,56,11,12,14,15,16,17,18,19,20,21,22,23,24,25,26,28,29,30,31,32,34,35,36,37,38,40,41,42,43,44,45,46,51,61,12,13,14,15,16,17,18,19,20,22,24,25,26,27,28,31,33,34,35,36,37,38,40,41,42,43,44,48,49,51,52,13,14,16,17,18,19,20,21,23,25,26,27,29,30,31,34,36,37,39,40,41,42,45,46,48,50,55,14,15,16,17,18,19,20,21,22,23,24,25,26,28,29,30,31,32,34,35,36,37,38,39,40,41,42,43,44,45,46,47,50,51,53,54,57,61,15,16,17,18,19,20,21,22,23,24,25,26,27,28,29,30,31,32,33,34,35,36,37,38,39,40,41,42,43,44,45,46,47,48,49,50,51,53,54,55,57,58,59,61,16,17,18,19,20,21,23,25,26,27,29,30,31,32,33,34,36,37,39,40,41,42,45,46,48,50,55,17,18,20,21,22,23,24,25,27,28,29,30,31,32,33,34,35,36,38,39,42,45,48,49,51,52,55,18,19,21,22,23,24,25,26,27,28,29,30,33,35,37,39,42,45,48,49,50,52,55,56,19,20,21,22,23,24,25,26,27,28,29,30,31,32,33,34,35,36,37,38,40,41,42,43,44,45,46,48,49,51,52,61,20,21,22,23,24,25,27,28,29,30,31,32,33,34,35,36,38,39,40,42,43,45,48,49,51,52,55,21,22,23,24,25,26,27,28,29,30,31,33,34,35,36,37,38,39,40,41,42,43,44,45,46,47,48,49,50,51,52,54,55,56,57,58,60,22,24,25,26,27,28,29,30,31,32,33,34,35,36,37,38,40,41,42,43,44,48,49,51,52,61,23,24,25,26,27,28,29,30,31,32,33,34,35,36,37,38,39,40,41,42,43,45,46,47,48,49,50,52,53,54,55,56,60,24,25,26,27,28,29,30,31,32,33,34,35,36,37,38,39,40,41,42,43,44,48,49,51,52,55,56,60,61,25,26,27,29,30,31,32,33,34,35,36,37,39,40,41,42,43,44,45,46,48,49,50,51,52,55,56,61,26,27,28,29,30,32,33,35,36,37,39,41,42,45,48,49,50,51,52,54,55,56,27,28,29,30,31,32,33,34,35,36,37,38,39,40,41,42,43,44,45,48,49,51,52,55,56,60,61,28,29,30,31,32,33,34,35,36,37,38,39,40,41,42,43,44,45,46,47,49,50,51,53,54,57,61,29,30,31,32,33,34,35,36,37,38,39,40,41,42,43,44,45,46,48,49,50,51,52,54,55,56,57,58,60,61,31,33,34,35,36,37,38,39,40,41,42,43,44,45,46,47,48,49,50,51,52,54,55,56,57,58,60,31,33,34,35,36,37,38,39,40,41,42,43,44,45,46,47,48,49,50,51,52,54,55,56,57,58,60,32,33,35,36,37,39,41,42,45,48,49,50,51,52,54,55,56,33,34,35,36,37,38,39,40,41,42,43,44,45,46,47,48,49,50,51,52,54,55,56,57,58,60,34,35,36,37,38,39,40,41,42,43,44,45,46,47,48,50,51,52,53,54,55,56,57,58,59,61,35,36,37,38,39,40,41,42,43,44,45,46,47,48,49,50,51,52,53,54,55,56,57,60,61,36,37,38,39,40,41,42,44,45,46,47,48,50,51,53,54,55,57,58,59,37,38,39,40,42,43,45,46,47,48,49,50,52,53,55,56,60,38,39,40,42,43,45,46,47,48,49,50,51,52,53,55,56,60,39,40,41,42,43,44,45,46,47,48,49,50,51,52,53,54,55,56,61,40,41,42,43,44,45,46,48,49,51,52,61,41,42,45,48,49,50,51,52,54,55,56,57,58,60,42,43,45,46,47,48,49,50,51,52,53,55,56,60,44,48,49,51,52,55,56,60,44,45,46,47,48,49,50,51,52,53,54,55,56,57,58,59,60,45,46,47,48,49,50,51,52,53,54,55,56,57,58,59,60,48,49,51,52,55,56,60,61,48,49,50,51,52,54,55,56,57,58,60,61,48,49,50,51,52,54,55,56,57,58,60,61,49,50,51,53,54,57,58,61,50,51,52,53,54,55,56,57,58,59,61,51,52,53,55,56,60,61,52,53,54,55,56,60,61,53,54,55,57,58,59,61,54,55,56,57,58,60,61,55,56,60,61,57,58,61,57,58,59,61,60,61,60,61,60,61,61];

USEFUL_RES = [{},
	{1,2,3,4,5,6,7,8},
	{1,2,3,4,5,6,7,8},
	{1,2,3,4,5,6,7,8},
	{1,2,3,6},
	{1,2,3,4,5,6,7,8},
	{1,2,3,4,5,6,7,8},
	{1,3,4,5,6,7,8},
	{1,2,3,4,5,6,7,8},
	{2,3,4,5,6,7,8},
	{1,2,4,5,7,8},
	{1,2,4,5,7,8},
	{1,2,3,4,5,6,7,8},
	{1,2,3,4,5,6,7,8},
	{1,2,3,4,5,6,7,8},
	{1,2,3,4,5,6,7,8},
	{2,3,4,5,6,7,8},
	{2,3,4,5,6,7,8},
	{1,2,3,4,5,6,7,8},
	{1,2,3,4,5,6,7,8},
	{1,2,3,4,5,6,7,8},
	{2,3,4,5,6,7,8},
	{1,2,3,4,5,6,7,8},
	{1,2,3,4,5,6,7,8},
	{1,2,3,4,5,6,7,8},
	{1,2,3,4,5,6,7,8},
	{1,2,3,4,5,6,7,8},
	{1,2,3,4,5,6,7,8},
	{2,3,4,5,6,7,8},
	{1,2,3,4,5,6,7,8},
	{1,2,3,4,5,6,7,8},
	{1,3,4,5,6,7,8},
	{1,2,4,5,7,8},
	{1,3,4,5,6,7,8},
	{1,2,3,4,5,6,7,8},
	{1,2,3,6},
	{1,2,3,4,5,6,7,8},
	{1,2,3,4,5,6,7,8},
	{1,2,3,4,5,6,7,8},
	{1,2,3,4,5,6,7,8},
	{2,3,4,5,6,7,8},
	{1,2,3,4,5,6,7,8},
	{2,3,4,5,6,7,8},
	{1,2,4,5,7,8},
	{1,2,3,4,5,6,7,8},
	{1,2,3,4,5,6,7,8},
	{1,2,3,4,5,6,7,8},
	{1,2,3,4,5,6,7,8},
	{1,2,3,4,5,6,7,8},
	{1,2,3,4,5,6,7,8},
	{1,3,4,5,6,7,8},
	{1,2,3,4,5,6,7,8},
	{1,2,4,5,7,8},
	{1,2,3,4,5,6,7,8},
	{2,3,4,5,6,7,8},
	{1,2,3,6},
	{1,2,3,4,5,6,7,8},
	{1,2,3,4,5,6,7,8},
	{1,3,4,5,6,7,8},
	{1,2,3,4,5,6,7,8},
	{1,2,3,4,5,6,7,8},
	{}];

POTENTIAL_ACT = [{2,3,4,5,6,7,8,9,11,12,13,14,15,16,19,20,21,23,24,25,26,27,28,30,31,32,33,34,35,36,37,38,39,40,42,44,45,46,47,48,49,50,51,52,53,54,56,57,58,59,60,61},
	{2,3,4,5,6,7,9,10,11,12,13,14,15,16,17,18,19,20,21,22,23,24,25,26,27,28,29,30,31,33,35,36,37,38,39,40,41,42,43,44,45,46,47,48,49,50,52,53,54,55,56,57,58,60,61},
	{2,3,4,5,6,7,8,9,10,13,14,15,16,17,18,19,20,21,22,23,24,25,26,27,28,29,30,31,32,34,35,36,37,38,39,40,41,42,43,45,46,47,48,49,50,51,52,54,55,56,57,58,59,60,61},
	{2,3,4,6,7,8,9,10,11,12,13,14,15,16,17,18,19,20,21,22,23,24,25,26,27,28,29,30,31,32,33,34,35,37,38,39,40,41,42,43,44,45,46,47,48,49,50,51,52,53,54,55,57,58,59,60,61},
	{2,3,4,6,7,8,9,10,11,12,13,14,15,16,17,18,19,20,21,22,23,24,25,26,27,28,29,30,31,32,33,34,35,37,38,39,40,41,42,43,44,45,46,47,48,49,50,51,52,53,54,55,57,58,59,60,61},
	{2,3,4,5,6,7,8,9,10,13,14,15,16,17,18,19,20,21,22,23,24,25,26,27,28,29,30,31,32,34,35,36,37,38,39,40,41,42,43,45,46,47,48,49,50,51,52,54,55,56,57,58,59,60,61},
	{2,3,4,6,7,8,9,10,11,12,13,14,15,16,17,18,19,20,21,22,23,24,25,26,27,28,29,30,31,32,33,34,35,37,38,39,40,41,42,43,44,45,46,47,48,49,50,51,52,53,54,55,57,58,59,60,61},
	{2,3,4,6,7,8,9,10,11,12,13,14,15,16,17,18,19,20,21,22,23,24,25,26,27,28,29,30,31,32,33,34,35,37,38,39,40,41,42,43,44,45,46,47,48,49,50,51,52,53,54,55,57,58,59,60,61}];
